20190517 58 0 0 0
20180510 50 0 0 0
20180509 50 0 0 0
20170614 56 0 0 0
20160623 56 0 0 0
20150617 100 0 0 0
20140616 100 10000 0 0
20130607 98 0 0 0
20120417 100 0 0 0
20110506 110 0 0 0
20100408 110 0 0 0
20090525 110 0 0 0
20081103 0 5000 0 0
20080528 150 0 0 0
20070522 150 0 0 0
20060704 120 0 0 0
20051107 0 3500 0 0
